c description: Graph 3-Colorability of graph: 
c generator: CNFgen (0.9.0)
c copyright: (C) 2012-2020 Massimo Lauria <massimo.lauria@uniroma1.it>
c url: https://massimolauria.net/cnfgen
c
p cnf 150 800
1 2 3 0
-1 -2 0
-1 -3 0
-2 -3 0
4 5 6 0
-4 -5 0
-4 -6 0
-5 -6 0
7 8 9 0
-7 -8 0
-7 -9 0
-8 -9 0
10 11 12 0
-10 -11 0
-10 -12 0
-11 -12 0
13 14 15 0
-13 -14 0
-13 -15 0
-14 -15 0
16 17 18 0
-16 -17 0
-16 -18 0
-17 -18 0
19 20 21 0
-19 -20 0
-19 -21 0
-20 -21 0
22 23 24 0
-22 -23 0
-22 -24 0
-23 -24 0
25 26 27 0
-25 -26 0
-25 -27 0
-26 -27 0
28 29 30 0
-28 -29 0
-28 -30 0
-29 -30 0
31 32 33 0
-31 -32 0
-31 -33 0
-32 -33 0
34 35 36 0
-34 -35 0
-34 -36 0
-35 -36 0
37 38 39 0
-37 -38 0
-37 -39 0
-38 -39 0
40 41 42 0
-40 -41 0
-40 -42 0
-41 -42 0
43 44 45 0
-43 -44 0
-43 -45 0
-44 -45 0
46 47 48 0
-46 -47 0
-46 -48 0
-47 -48 0
49 50 51 0
-49 -50 0
-49 -51 0
-50 -51 0
52 53 54 0
-52 -53 0
-52 -54 0
-53 -54 0
55 56 57 0
-55 -56 0
-55 -57 0
-56 -57 0
58 59 60 0
-58 -59 0
-58 -60 0
-59 -60 0
61 62 63 0
-61 -62 0
-61 -63 0
-62 -63 0
64 65 66 0
-64 -65 0
-64 -66 0
-65 -66 0
67 68 69 0
-67 -68 0
-67 -69 0
-68 -69 0
70 71 72 0
-70 -71 0
-70 -72 0
-71 -72 0
73 74 75 0
-73 -74 0
-73 -75 0
-74 -75 0
76 77 78 0
-76 -77 0
-76 -78 0
-77 -78 0
79 80 81 0
-79 -80 0
-79 -81 0
-80 -81 0
82 83 84 0
-82 -83 0
-82 -84 0
-83 -84 0
85 86 87 0
-85 -86 0
-85 -87 0
-86 -87 0
88 89 90 0
-88 -89 0
-88 -90 0
-89 -90 0
91 92 93 0
-91 -92 0
-91 -93 0
-92 -93 0
94 95 96 0
-94 -95 0
-94 -96 0
-95 -96 0
97 98 99 0
-97 -98 0
-97 -99 0
-98 -99 0
100 101 102 0
-100 -101 0
-100 -102 0
-101 -102 0
103 104 105 0
-103 -104 0
-103 -105 0
-104 -105 0
106 107 108 0
-106 -107 0
-106 -108 0
-107 -108 0
109 110 111 0
-109 -110 0
-109 -111 0
-110 -111 0
112 113 114 0
-112 -113 0
-112 -114 0
-113 -114 0
115 116 117 0
-115 -116 0
-115 -117 0
-116 -117 0
118 119 120 0
-118 -119 0
-118 -120 0
-119 -120 0
121 122 123 0
-121 -122 0
-121 -123 0
-122 -123 0
124 125 126 0
-124 -125 0
-124 -126 0
-125 -126 0
127 128 129 0
-127 -128 0
-127 -129 0
-128 -129 0
130 131 132 0
-130 -131 0
-130 -132 0
-131 -132 0
133 134 135 0
-133 -134 0
-133 -135 0
-134 -135 0
136 137 138 0
-136 -137 0
-136 -138 0
-137 -138 0
139 140 141 0
-139 -140 0
-139 -141 0
-140 -141 0
142 143 144 0
-142 -143 0
-142 -144 0
-143 -144 0
145 146 147 0
-145 -146 0
-145 -147 0
-146 -147 0
148 149 150 0
-148 -149 0
-148 -150 0
-149 -150 0
-1 -7 0
-2 -8 0
-3 -9 0
-1 -10 0
-2 -11 0
-3 -12 0
-1 -22 0
-2 -23 0
-3 -24 0
-1 -43 0
-2 -44 0
-3 -45 0
-1 -46 0
-2 -47 0
-3 -48 0
-1 -49 0
-2 -50 0
-3 -51 0
-1 -52 0
-2 -53 0
-3 -54 0
-1 -70 0
-2 -71 0
-3 -72 0
-1 -112 0
-2 -113 0
-3 -114 0
-1 -148 0
-2 -149 0
-3 -150 0
-4 -22 0
-5 -23 0
-6 -24 0
-4 -34 0
-5 -35 0
-6 -36 0
-4 -49 0
-5 -50 0
-6 -51 0
-4 -85 0
-5 -86 0
-6 -87 0
-4 -88 0
-5 -89 0
-6 -90 0
-4 -136 0
-5 -137 0
-6 -138 0
-7 -10 0
-8 -11 0
-9 -12 0
-7 -46 0
-8 -47 0
-9 -48 0
-7 -49 0
-8 -50 0
-9 -51 0
-7 -64 0
-8 -65 0
-9 -66 0
-7 -67 0
-8 -68 0
-9 -69 0
-7 -73 0
-8 -74 0
-9 -75 0
-7 -94 0
-8 -95 0
-9 -96 0
-7 -106 0
-8 -107 0
-9 -108 0
-10 -13 0
-11 -14 0
-12 -15 0
-10 -16 0
-11 -17 0
-12 -18 0
-10 -73 0
-11 -74 0
-12 -75 0
-10 -76 0
-11 -77 0
-12 -78 0
-10 -97 0
-11 -98 0
-12 -99 0
-10 -118 0
-11 -119 0
-12 -120 0
-13 -22 0
-14 -23 0
-15 -24 0
-13 -31 0
-14 -32 0
-15 -33 0
-13 -64 0
-14 -65 0
-15 -66 0
-13 -97 0
-14 -98 0
-15 -99 0
-13 -103 0
-14 -104 0
-15 -105 0
-13 -112 0
-14 -113 0
-15 -114 0
-13 -136 0
-14 -137 0
-15 -138 0
-16 -49 0
-17 -50 0
-18 -51 0
-16 -55 0
-17 -56 0
-18 -57 0
-16 -94 0
-17 -95 0
-18 -96 0
-16 -97 0
-17 -98 0
-18 -99 0
-16 -115 0
-17 -116 0
-18 -117 0
-16 -130 0
-17 -131 0
-18 -132 0
-19 -25 0
-20 -26 0
-21 -27 0
-19 -55 0
-20 -56 0
-21 -57 0
-19 -85 0
-20 -86 0
-21 -87 0
-19 -94 0
-20 -95 0
-21 -96 0
-19 -124 0
-20 -125 0
-21 -126 0
-19 -136 0
-20 -137 0
-21 -138 0
-22 -43 0
-23 -44 0
-24 -45 0
-22 -46 0
-23 -47 0
-24 -48 0
-22 -79 0
-23 -80 0
-24 -81 0
-22 -97 0
-23 -98 0
-24 -99 0
-22 -121 0
-23 -122 0
-24 -123 0
-22 -124 0
-23 -125 0
-24 -126 0
-22 -142 0
-23 -143 0
-24 -144 0
-22 -148 0
-23 -149 0
-24 -150 0
-25 -31 0
-26 -32 0
-27 -33 0
-25 -46 0
-26 -47 0
-27 -48 0
-25 -76 0
-26 -77 0
-27 -78 0
-25 -88 0
-26 -89 0
-27 -90 0
-28 -31 0
-29 -32 0
-30 -33 0
-28 -43 0
-29 -44 0
-30 -45 0
-28 -61 0
-29 -62 0
-30 -63 0
-28 -67 0
-29 -68 0
-30 -69 0
-28 -82 0
-29 -83 0
-30 -84 0
-28 -97 0
-29 -98 0
-30 -99 0
-28 -100 0
-29 -101 0
-30 -102 0
-28 -109 0
-29 -110 0
-30 -111 0
-28 -133 0
-29 -134 0
-30 -135 0
-28 -142 0
-29 -143 0
-30 -144 0
-31 -34 0
-32 -35 0
-33 -36 0
-31 -49 0
-32 -50 0
-33 -51 0
-31 -55 0
-32 -56 0
-33 -57 0
-31 -58 0
-32 -59 0
-33 -60 0
-31 -67 0
-32 -68 0
-33 -69 0
-31 -73 0
-32 -74 0
-33 -75 0
-31 -82 0
-32 -83 0
-33 -84 0
-31 -121 0
-32 -122 0
-33 -123 0
-31 -139 0
-32 -140 0
-33 -141 0
-31 -142 0
-32 -143 0
-33 -144 0
-34 -40 0
-35 -41 0
-36 -42 0
-34 -46 0
-35 -47 0
-36 -48 0
-34 -73 0
-35 -74 0
-36 -75 0
-34 -91 0
-35 -92 0
-36 -93 0
-34 -100 0
-35 -101 0
-36 -102 0
-34 -145 0
-35 -146 0
-36 -147 0
-37 -64 0
-38 -65 0
-39 -66 0
-37 -67 0
-38 -68 0
-39 -69 0
-37 -88 0
-38 -89 0
-39 -90 0
-37 -115 0
-38 -116 0
-39 -117 0
-37 -127 0
-38 -128 0
-39 -129 0
-37 -145 0
-38 -146 0
-39 -147 0
-40 -55 0
-41 -56 0
-42 -57 0
-40 -130 0
-41 -131 0
-42 -132 0
-40 -142 0
-41 -143 0
-42 -144 0
-43 -46 0
-44 -47 0
-45 -48 0
-43 -55 0
-44 -56 0
-45 -57 0
-43 -70 0
-44 -71 0
-45 -72 0
-43 -91 0
-44 -92 0
-45 -93 0
-43 -100 0
-44 -101 0
-45 -102 0
-43 -130 0
-44 -131 0
-45 -132 0
-43 -142 0
-44 -143 0
-45 -144 0
-46 -64 0
-47 -65 0
-48 -66 0
-46 -82 0
-47 -83 0
-48 -84 0
-46 -97 0
-47 -98 0
-48 -99 0
-46 -103 0
-47 -104 0
-48 -105 0
-46 -127 0
-47 -128 0
-48 -129 0
-46 -145 0
-47 -146 0
-48 -147 0
-46 -148 0
-47 -149 0
-48 -150 0
-49 -76 0
-50 -77 0
-51 -78 0
-49 -85 0
-50 -86 0
-51 -87 0
-49 -88 0
-50 -89 0
-51 -90 0
-49 -109 0
-50 -110 0
-51 -111 0
-49 -115 0
-50 -116 0
-51 -117 0
-49 -139 0
-50 -140 0
-51 -141 0
-49 -148 0
-50 -149 0
-51 -150 0
-52 -55 0
-53 -56 0
-54 -57 0
-52 -58 0
-53 -59 0
-54 -60 0
-52 -64 0
-53 -65 0
-54 -66 0
-52 -70 0
-53 -71 0
-54 -72 0
-52 -73 0
-53 -74 0
-54 -75 0
-52 -97 0
-53 -98 0
-54 -99 0
-52 -109 0
-53 -110 0
-54 -111 0
-52 -124 0
-53 -125 0
-54 -126 0
-52 -130 0
-53 -131 0
-54 -132 0
-55 -64 0
-56 -65 0
-57 -66 0
-55 -79 0
-56 -80 0
-57 -81 0
-55 -112 0
-56 -113 0
-57 -114 0
-55 -115 0
-56 -116 0
-57 -117 0
-55 -121 0
-56 -122 0
-57 -123 0
-55 -136 0
-56 -137 0
-57 -138 0
-55 -148 0
-56 -149 0
-57 -150 0
-58 -91 0
-59 -92 0
-60 -93 0
-58 -100 0
-59 -101 0
-60 -102 0
-58 -112 0
-59 -113 0
-60 -114 0
-58 -115 0
-59 -116 0
-60 -117 0
-58 -136 0
-59 -137 0
-60 -138 0
-61 -73 0
-62 -74 0
-63 -75 0
-61 -115 0
-62 -116 0
-63 -117 0
-61 -124 0
-62 -125 0
-63 -126 0
-64 -97 0
-65 -98 0
-66 -99 0
-64 -133 0
-65 -134 0
-66 -135 0
-67 -82 0
-68 -83 0
-69 -84 0
-67 -85 0
-68 -86 0
-69 -87 0
-67 -91 0
-68 -92 0
-69 -93 0
-70 -127 0
-71 -128 0
-72 -129 0
-70 -142 0
-71 -143 0
-72 -144 0
-70 -148 0
-71 -149 0
-72 -150 0
-73 -88 0
-74 -89 0
-75 -90 0
-73 -148 0
-74 -149 0
-75 -150 0
-76 -79 0
-77 -80 0
-78 -81 0
-76 -82 0
-77 -83 0
-78 -84 0
-76 -85 0
-77 -86 0
-78 -87 0
-76 -136 0
-77 -137 0
-78 -138 0
-76 -139 0
-77 -140 0
-78 -141 0
-76 -148 0
-77 -149 0
-78 -150 0
-79 -82 0
-80 -83 0
-81 -84 0
-79 -109 0
-80 -110 0
-81 -111 0
-79 -121 0
-80 -122 0
-81 -123 0
-82 -85 0
-83 -86 0
-84 -87 0
-82 -103 0
-83 -104 0
-84 -105 0
-82 -109 0
-83 -110 0
-84 -111 0
-82 -145 0
-83 -146 0
-84 -147 0
-85 -88 0
-86 -89 0
-87 -90 0
-85 -97 0
-86 -98 0
-87 -99 0
-85 -100 0
-86 -101 0
-87 -102 0
-85 -115 0
-86 -116 0
-87 -117 0
-85 -127 0
-86 -128 0
-87 -129 0
-85 -139 0
-86 -140 0
-87 -141 0
-85 -145 0
-86 -146 0
-87 -147 0
-88 -115 0
-89 -116 0
-90 -117 0
-88 -136 0
-89 -137 0
-90 -138 0
-91 -100 0
-92 -101 0
-93 -102 0
-91 -106 0
-92 -107 0
-93 -108 0
-94 -100 0
-95 -101 0
-96 -102 0
-94 -109 0
-95 -110 0
-96 -111 0
-94 -112 0
-95 -113 0
-96 -114 0
-94 -130 0
-95 -131 0
-96 -132 0
-94 -142 0
-95 -143 0
-96 -144 0
-94 -148 0
-95 -149 0
-96 -150 0
-97 -100 0
-98 -101 0
-99 -102 0
-97 -121 0
-98 -122 0
-99 -123 0
-97 -127 0
-98 -128 0
-99 -129 0
-100 -136 0
-101 -137 0
-102 -138 0
-103 -127 0
-104 -128 0
-105 -129 0
-106 -109 0
-107 -110 0
-108 -111 0
-106 -112 0
-107 -113 0
-108 -114 0
-106 -121 0
-107 -122 0
-108 -123 0
-106 -133 0
-107 -134 0
-108 -135 0
-109 -118 0
-110 -119 0
-111 -120 0
-109 -130 0
-110 -131 0
-111 -132 0
-109 -142 0
-110 -143 0
-111 -144 0
-112 -133 0
-113 -134 0
-114 -135 0
-115 -145 0
-116 -146 0
-117 -147 0
-124 -133 0
-125 -134 0
-126 -135 0
-127 -148 0
-128 -149 0
-129 -150 0
-133 -139 0
-134 -140 0
-135 -141 0
-136 -142 0
-137 -143 0
-138 -144 0
-145 -148 0
-146 -149 0
-147 -150 0